244 5
10 10 10 10 10 

0 0 0 0 0 0 3 2 14 26 
0 0 0 0 0 0 4 3 4 5 7 
7 2 0 0 0 0 3 11 10 6 
1 9 0 0 0 0 3 12 11 8 
7 10 0 0 0 0 3 10 9 8 
8 8 0 0 0 0 2 9 8 
5 9 0 0 0 0 2 8 211 
10 10 0 0 0 0 1 13 
10 6 0 0 0 0 1 13 
4 5 0 0 0 0 1 13 
3 6 0 0 0 0 1 13 
4 10 0 0 0 0 1 13 
0 0 0 0 0 0 1 38 
0 0 0 0 0 0 5 15 16 18 23 24 
1 0 0 0 0 4 3 22 21 19 
3 0 0 0 0 6 2 19 17 
4 0 0 0 0 8 1 20 
4 0 0 0 0 6 2 19 198 
3 0 0 0 0 7 1 25 
9 0 0 0 0 10 1 25 
2 0 0 0 0 7 1 25 
5 0 0 0 0 9 1 25 
6 0 0 0 0 10 1 25 
2 0 0 0 0 8 1 25 
0 0 0 0 0 0 1 38 
0 0 0 0 0 0 4 27 28 29 32 
3 0 0 0 0 1 4 36 35 31 30 
5 0 0 0 0 5 3 35 31 30 
5 0 0 0 0 10 2 31 30 
6 0 0 0 0 10 2 34 33 
1 0 0 0 0 10 1 33 
6 0 0 0 0 10 1 33 
7 0 0 0 0 10 1 37 
6 0 0 0 0 6 2 37 46 
10 0 0 0 0 5 1 37 
7 0 0 0 0 8 1 37 
0 0 0 0 0 0 1 38 
0 0 0 0 0 0 3 39 51 63 
0 0 0 0 0 0 4 40 41 42 43 
8 0 0 0 0 3 4 49 48 46 45 
3 0 0 0 0 9 3 49 47 44 
2 0 0 0 0 6 3 49 47 44 
5 0 0 0 0 7 3 49 47 44 
2 0 0 0 0 10 1 48 
10 0 0 0 0 4 1 47 
3 0 0 0 0 10 1 47 
7 0 0 0 0 9 2 50 178 
3 0 0 0 0 10 1 50 
5 0 0 0 0 7 1 50 
0 0 0 0 0 0 1 75 
0 0 0 0 0 0 3 52 55 61 
8 0 0 0 0 2 2 54 53 
1 0 0 0 0 10 4 60 59 57 56 
7 0 0 0 0 7 3 58 57 184 
5 0 0 0 0 8 1 56 
7 0 0 0 0 5 1 62 
10 0 0 0 0 10 1 62 
8 0 0 0 0 8 1 62 
3 0 0 0 0 9 1 62 
5 0 0 0 0 10 1 62 
8 0 0 0 0 6 1 62 
0 0 0 0 0 0 1 75 
0 0 0 0 0 0 6 64 65 66 67 70 147 
2 0 5 0 0 0 3 73 69 68 
10 0 5 0 0 0 3 73 69 68 
5 0 4 0 0 0 2 73 71 
6 0 5 0 0 0 2 72 71 
10 0 10 0 0 0 1 72 
5 0 9 0 0 0 1 71 
1 0 7 0 0 0 1 71 
9 0 10 0 0 0 1 74 
4 0 10 0 0 0 1 74 
2 0 10 0 0 0 1 74 
0 0 0 0 0 0 1 75 
0 0 0 0 0 0 3 76 108 140 
0 0 0 0 0 0 6 77 78 79 80 81 92 
5 0 0 4 2 5 4 94 84 83 82 
4 0 0 4 7 8 5 94 90 88 83 82 
6 0 0 4 4 7 3 88 83 82 
8 0 0 7 4 9 3 93 84 82 
1 0 0 8 6 10 5 97 96 93 89 84 
1 0 0 6 8 6 3 89 86 85 
2 0 0 9 10 5 2 93 87 
7 0 0 6 6 5 2 90 88 
10 0 0 8 6 6 2 96 91 
10 0 0 6 10 10 2 96 91 
7 0 0 9 6 7 2 96 91 
3 0 0 2 7 10 2 91 117 
4 0 0 8 9 7 1 91 
5 0 0 8 10 7 1 91 
2 0 0 10 8 10 6 106 105 104 101 100 95 
2 0 0 10 9 10 3 106 101 98 
1 0 0 7 10 10 2 104 95 
2 0 0 7 8 9 4 106 104 103 100 
8 0 0 10 10 3 2 102 98 
5 0 0 6 7 9 3 105 104 102 
4 0 0 10 5 9 3 105 104 102 
1 0 0 9 10 6 1 99 
6 0 0 4 9 4 1 103 
7 0 0 10 9 9 1 102 
8 0 0 10 10 6 1 102 
7 0 0 10 10 7 1 107 
9 0 0 9 9 9 1 107 
7 0 0 5 7 7 1 107 
2 0 0 9 4 5 1 107 
6 0 0 10 5 10 1 107 
0 0 0 0 0 0 1 244 
0 0 0 0 0 0 7 109 111 113 115 118 137 138 
5 0 7 4 0 4 4 130 122 112 110 
2 0 10 8 0 10 3 129 123 114 
5 0 5 7 0 3 5 136 135 131 126 116 
1 0 6 5 0 10 4 133 132 126 116 
9 0 9 1 0 10 6 131 130 127 126 125 117 
5 0 9 9 0 8 3 126 116 143 
6 0 7 6 0 5 6 134 131 128 126 124 122 
5 0 6 8 0 10 3 127 121 117 
2 0 6 8 0 8 1 119 
9 0 10 8 0 7 2 132 130 
1 0 8 5 0 6 1 120 
9 0 6 7 0 8 1 124 
1 0 10 10 0 5 1 125 
2 0 10 9 0 8 1 129 
10 0 6 10 0 10 1 128 
4 0 8 9 0 4 1 139 
2 0 6 10 0 9 1 139 
3 0 10 8 0 4 1 139 
7 0 6 8 0 9 1 139 
8 0 8 9 0 9 1 139 
1 0 10 9 0 8 1 139 
5 0 9 7 0 10 1 139 
4 0 4 9 0 6 1 139 
10 0 6 9 0 10 1 139 
9 0 8 10 0 7 1 139 
8 0 9 6 0 10 1 139 
7 0 10 7 0 9 1 139 
9 0 6 3 0 6 1 139 
2 0 4 6 0 4 1 139 
3 0 6 10 0 8 1 139 
0 0 0 0 0 0 1 244 
0 0 0 0 0 0 4 141 142 144 145 
9 0 0 0 3 0 3 149 147 143 
10 0 0 0 10 0 5 149 148 147 146 229 
3 0 0 0 4 0 3 150 148 146 
4 0 0 0 10 0 1 147 
2 0 0 0 6 0 1 146 
1 0 0 0 10 0 1 151 
10 0 0 0 7 0 1 151 
8 0 0 0 6 0 1 151 
8 0 0 0 9 0 1 151 
7 0 0 0 10 0 1 151 
0 0 0 0 0 0 3 152 164 186 
0 0 0 0 0 0 3 153 154 156 
6 0 0 0 4 0 3 158 157 155 
3 0 0 0 10 0 3 158 157 155 
9 0 0 0 6 0 5 162 161 160 159 234 
5 0 0 0 10 0 3 161 160 159 
7 0 0 0 7 0 2 161 159 
2 0 0 0 6 0 2 160 159 
8 0 0 0 7 0 1 163 
6 0 0 0 10 0 1 163 
3 0 0 0 7 0 1 163 
10 0 0 0 8 0 1 163 
0 0 0 0 0 0 3 208 220 232 
0 0 0 0 0 0 10 165 166 167 170 171 172 174 182 183 184 
2 4 0 0 0 3 2 177 168 
8 5 0 0 0 9 2 177 169 
5 9 0 0 0 9 3 179 178 173 
4 8 0 0 0 6 3 181 178 175 
1 7 0 0 0 4 2 180 173 
6 10 0 0 0 9 2 178 175 
7 9 0 0 0 8 2 179 177 
8 7 0 0 0 6 2 177 176 
7 4 0 0 0 7 1 175 
9 7 0 0 0 9 1 175 
7 10 0 0 0 10 1 176 
2 2 0 0 0 8 1 185 
1 8 0 0 0 10 1 185 
6 10 0 0 0 7 1 185 
10 10 0 0 0 9 1 185 
1 10 0 0 0 6 1 185 
10 5 0 0 0 10 2 185 212 
10 9 0 0 0 6 1 185 
7 9 0 0 0 7 1 185 
1 7 0 0 0 7 1 185 
0 0 0 0 0 0 1 244 
0 0 0 0 0 0 9 187 188 190 191 193 196 197 205 206 
2 5 4 0 0 0 3 204 202 189 
5 7 5 0 0 0 4 203 202 201 195 
1 10 6 0 0 0 2 199 192 
3 5 5 0 0 0 3 200 199 198 
7 8 10 0 0 0 2 199 194 
9 8 10 0 0 0 1 194 
7 8 5 0 0 0 1 195 
5 3 10 0 0 0 1 198 
10 10 8 0 0 0 1 198 
7 7 10 0 0 0 1 201 
8 8 2 0 0 0 1 200 
3 9 10 0 0 0 1 207 
7 6 7 0 0 0 1 207 
10 10 7 0 0 0 2 207 233 
10 7 9 0 0 0 1 207 
2 10 9 0 0 0 1 207 
5 8 5 0 0 0 1 207 
3 5 9 0 0 0 1 207 
5 9 9 0 0 0 1 207 
7 7 10 0 0 0 1 207 
0 0 0 0 0 0 1 244 
0 0 0 0 0 0 4 209 210 217 218 
2 6 0 0 0 0 4 216 214 212 211 
7 2 0 0 0 0 2 214 211 
8 10 0 0 0 0 1 213 
2 8 0 0 0 0 1 215 
8 8 0 0 0 0 1 219 
7 6 0 0 0 0 1 219 
2 8 0 0 0 0 1 219 
5 10 0 0 0 0 2 219 230 
3 7 0 0 0 0 1 219 
7 10 0 0 0 0 1 219 
0 0 0 0 0 0 1 244 
0 0 0 0 0 0 5 221 222 224 229 230 
6 2 0 0 0 0 3 228 226 225 
2 7 0 0 0 0 2 226 223 
10 5 0 0 0 0 1 227 
8 9 0 0 0 0 1 225 
4 10 0 0 0 0 1 231 
7 10 0 0 0 0 2 231 238 
3 10 0 0 0 0 1 231 
7 4 0 0 0 0 1 231 
4 9 0 0 0 0 1 231 
7 9 0 0 0 0 1 231 
0 0 0 0 0 0 1 244 
0 0 0 0 0 0 5 233 234 235 236 237 
8 0 3 0 0 0 4 242 241 240 238 
2 0 6 0 0 0 3 242 241 238 
1 0 10 0 0 0 3 242 240 238 
4 0 9 0 0 0 3 241 240 239 
3 0 9 0 0 0 2 240 238 
10 0 5 0 0 0 1 239 
3 0 10 0 0 0 1 243 
2 0 9 0 0 0 1 243 
10 0 4 0 0 0 1 243 
3 0 10 0 0 0 1 243 
0 0 0 0 0 0 1 244 
0 0 0 0 0 0 0 
